c 1 DB
c 2 OS
c 3 NutOS
c 4 Win
c 5 BufferMgr
c 6 Persistent
c 7 MemAlloc
c 8 Static
c 9 Dynamic
c 10 PageRepl
c 11 LRU
c 12 LFU
c 13 InMemory
c 14 DebugLogging
c 15 Storage
c 16 API
c 17 get
c 18 put
c 19 delete
c 20 Index
c 21 BTree
c 22 Unindexed
p cnf 22 40
1 0
-2 1 0
-1 2 0
-3 2 0
-4 2 0
-2 3 4 0
-4 -3 0
-5 1 0
-1 5 0
-6 5 0
-7 6 0
-6 7 0
-8 7 0
-9 7 0
-7 8 9 0
-9 -8 0
-10 6 0
-6 10 0
-11 10 0
-12 10 0
-10 11 12 0
-12 -11 0
-13 5 0
-5 6 13 0
-13 -6 0
-14 1 0
-15 1 0
-1 15 0
-16 15 0
-15 16 0
-17 16 0
-18 16 0
-19 16 0
-16 17 18 19 0
-20 15 0
-15 20 0
-21 20 0
-22 20 0
-20 21 22 0
-22 -21 0
